(set-info :source |printed by MathSAT|)
(declare-fun call_synapse.ite () Int)
(declare-fun call_synapse.ite18.next () Int)
(declare-fun call_excludes3.excludes () Bool)
(declare-fun call_synapse.ite9.next () Int)
(declare-fun param_e_s2 () Bool)
(declare-fun call_synapse.mem_init_s.next () Int)
(declare-fun call_synapse.ite4.next () Int)
(declare-fun param_e_s2.next () Bool)
(declare-fun flby.next () Bool)
(declare-fun call_synapse.ite16.next () Int)
(declare-fun call_synapse.garde_s2.next () Bool)
(declare-fun call_synapse.invalid_s () Int)
(declare-fun valid_s () Int)
(declare-fun call_synapse.flby3 () Int)
(declare-fun call_synapse.ite12.next () Int)
(declare-fun call_synapse.ite4 () Int)
(declare-fun call_synapse.flby4.next () Int)
(declare-fun call_synapse.ite10.next () Int)
(declare-fun call_synapse.ite5 () Int)
(declare-fun call_synapse.ite7.next () Int)
(declare-fun call_synapse.ite5.next () Int)
(declare-fun call_synapse.ite2.next () Int)
(declare-fun _OK_.next () Bool)
(declare-fun mem_init_s () Int)
(declare-fun call_synapse.ite11 () Int)
(declare-fun call_synapse.ite16 () Int)
(declare-fun call_synapse.ite8.next () Int)
(declare-fun call_synapse.flby2 () Int)
(declare-fun param_e_s1.next () Bool)
(declare-fun param_e_s3 () Bool)
(declare-fun call_synapse.ite12 () Int)
(declare-fun call_synapse.ite8 () Int)
(declare-fun invalid_s () Int)
(declare-fun call_Sofar.Sofar.next () Bool)
(declare-fun call_synapse.ite15.next () Int)
(declare-fun env () Bool)
(declare-fun call_synapse.flby.next () Int)
(declare-fun param_e_s1 () Bool)
(declare-fun env.next () Bool)
(declare-fun call_synapse.ite14.next () Int)
(declare-fun invalid_s.next () Int)
(declare-fun call_synapse.ite14 () Int)
(declare-fun param_init_invalid_s.next () Int)
(declare-fun valid_s.next () Int)
(declare-fun call_synapse.flby3.next () Int)
(declare-fun dirty_s () Int)
(declare-fun call_synapse.ite13 () Int)
(declare-fun call_synapse.ite6.next () Int)
(declare-fun call_synapse.mem_init_s () Int)
(declare-fun call_synapse.ite18 () Int)
(declare-fun call_Sofar.Sofar () Bool)
(declare-fun mem_init_s.next () Int)
(declare-fun call_Sofar.flby.next () Bool)
(declare-fun call_synapse.ite2 () Int)
(declare-fun call_excludes3.excludes.next () Bool)
(declare-fun call_synapse.dirty_s () Int)
(declare-fun call_synapse.ite6 () Int)
(declare-fun call_synapse.ite11.next () Int)
(declare-fun param_e_s3.next () Bool)
(declare-fun call_Sofar.flby () Bool)
(declare-fun call_synapse.ite3.next () Int)
(declare-fun call_synapse.ite.next () Int)
(declare-fun call_synapse.valid_s () Int)
(declare-fun call_synapse.ite17.next () Int)
(declare-fun call_synapse.flby4 () Int)
(declare-fun dirty_s.next () Int)
(declare-fun call_synapse.ite10 () Int)
(declare-fun call_synapse.flby () Int)
(declare-fun call_synapse.ite17 () Int)
(declare-fun call_synapse.invalid_s.next () Int)
(declare-fun call_synapse.ite7 () Int)
(declare-fun call_synapse.valid_s.next () Int)
(declare-fun call_synapse.dirty_s.next () Int)
(declare-fun call_synapse.garde_s3.next () Bool)
(declare-fun call_synapse.flby2.next () Int)
(declare-fun call_synapse.ite13.next () Int)
(declare-fun call_synapse.garde_s1.next () Bool)
(declare-fun _OK_ () Bool)
(declare-fun flby () Bool)
(define-fun .def_809 () Bool (= call_Sofar.flby.next call_Sofar.Sofar.next))
(define-fun .def_804 () Bool (and param_e_s3.next param_e_s2.next))
(define-fun .def_802 () Bool (and param_e_s3.next param_e_s1.next))
(define-fun .def_801 () Bool (and param_e_s1.next param_e_s2.next))
(define-fun .def_803 () Bool (or .def_801 .def_802))
(define-fun .def_805 () Bool (or .def_803 .def_804))
(define-fun .def_806 () Bool (not .def_805))
(define-fun .def_807 () Bool (= call_excludes3.excludes.next .def_806))
(define-fun .def_799 () Bool (= call_synapse.flby.next call_synapse.mem_init_s.next))
(define-fun .def_797 () Bool (= call_synapse.flby4.next call_synapse.dirty_s.next))
(define-fun .def_795 () Bool (= call_synapse.flby3.next call_synapse.valid_s.next))
(define-fun .def_793 () Bool (= call_synapse.flby2.next call_synapse.invalid_s.next))
(define-fun .def_789 () Bool (= call_synapse.ite16.next call_synapse.ite17.next))
(define-fun .def_790 () Bool (or param_e_s2.next .def_789))
(define-fun .def_786 () Bool (= call_synapse.ite14.next call_synapse.ite17.next))
(define-fun .def_777 () Bool (not param_e_s2.next))
(define-fun .def_787 () Bool (or .def_777 .def_786))
(define-fun .def_783 () Bool (= call_synapse.ite10.next call_synapse.ite11.next))
(define-fun .def_784 () Bool (or param_e_s2.next .def_783))
(define-fun .def_780 () Bool (= call_synapse.ite8.next call_synapse.ite11.next))
(define-fun .def_781 () Bool (or .def_777 .def_780))
(define-fun .def_776 () Bool (= call_synapse.ite2.next call_synapse.ite5.next))
(define-fun .def_778 () Bool (or .def_776 .def_777))
(define-fun .def_773 () Bool (= call_synapse.ite4.next call_synapse.ite5.next))
(define-fun .def_775 () Bool (or .def_773 param_e_s2.next))
(define-fun .def_779 () Bool (and .def_775 .def_778))
(define-fun .def_782 () Bool (and .def_779 .def_781))
(define-fun .def_785 () Bool (and .def_782 .def_784))
(define-fun .def_788 () Bool (and .def_785 .def_787))
(define-fun .def_791 () Bool (and .def_788 .def_790))
(define-fun .def_769 () Bool (= call_synapse.ite18.next call_synapse.ite17.next))
(define-fun .def_770 () Bool (or param_e_s1.next .def_769))
(define-fun .def_765 () Bool (= call_synapse.ite13.next call_synapse.ite18.next))
(define-fun .def_755 () Bool (not param_e_s1.next))
(define-fun .def_766 () Bool (or .def_755 .def_765))
(define-fun .def_762 () Bool (= call_synapse.ite12.next call_synapse.ite11.next))
(define-fun .def_763 () Bool (or param_e_s1.next .def_762))
(define-fun .def_758 () Bool (= call_synapse.ite7.next call_synapse.ite12.next))
(define-fun .def_759 () Bool (or .def_755 .def_758))
(define-fun .def_754 () Bool (= call_synapse.ite.next call_synapse.ite6.next))
(define-fun .def_756 () Bool (or .def_754 .def_755))
(define-fun .def_751 () Bool (= call_synapse.ite6.next call_synapse.ite5.next))
(define-fun .def_753 () Bool (or .def_751 param_e_s1.next))
(define-fun .def_757 () Bool (and .def_753 .def_756))
(define-fun .def_760 () Bool (and .def_757 .def_759))
(define-fun .def_764 () Bool (and .def_760 .def_763))
(define-fun .def_767 () Bool (and .def_764 .def_766))
(define-fun .def_771 () Bool (and .def_767 .def_770))
(define-fun .def_748 () Bool (= env.next call_Sofar.Sofar.next))
(define-fun .def_745 () Bool (= mem_init_s.next call_synapse.mem_init_s.next))
(define-fun .def_741 () Bool (= dirty_s.next call_synapse.dirty_s.next))
(define-fun .def_738 () Bool (= valid_s.next call_synapse.valid_s.next))
(define-fun .def_735 () Bool (= invalid_s.next call_synapse.invalid_s.next))
(define-fun .def_731 () Bool (not env.next))
(define-fun .def_732 () Bool (or flby.next .def_731))
(define-fun .def_733 () Bool (= _OK_.next .def_732))
(define-fun .def_736 () Bool (and .def_733 .def_735))
(define-fun .def_739 () Bool (and .def_736 .def_738))
(define-fun .def_742 () Bool (and .def_739 .def_741))
(define-fun .def_746 () Bool (and .def_742 .def_745))
(define-fun .def_749 () Bool (and .def_746 .def_748))
(define-fun .def_772 () Bool (and .def_749 .def_771))
(define-fun .def_792 () Bool (and .def_772 .def_791))
(define-fun .def_794 () Bool (and .def_792 .def_793))
(define-fun .def_796 () Bool (and .def_794 .def_795))
(define-fun .def_798 () Bool (and .def_796 .def_797))
(define-fun .def_800 () Bool (and .def_798 .def_799))
(define-fun .def_808 () Bool (and .def_800 .def_807))
(define-fun .def_810 () Bool (and .def_808 .def_809))
(define-fun .def_563 () Bool (= call_Sofar.flby call_Sofar.Sofar))
(define-fun .def_558 () Bool (and param_e_s3 param_e_s2))
(define-fun .def_556 () Bool (and param_e_s3 param_e_s1))
(define-fun .def_555 () Bool (and param_e_s1 param_e_s2))
(define-fun .def_557 () Bool (or .def_555 .def_556))
(define-fun .def_559 () Bool (or .def_557 .def_558))
(define-fun .def_560 () Bool (not .def_559))
(define-fun .def_561 () Bool (= call_excludes3.excludes .def_560))
(define-fun .def_553 () Bool (= call_synapse.flby call_synapse.mem_init_s))
(define-fun .def_551 () Bool (= call_synapse.flby4 call_synapse.dirty_s))
(define-fun .def_549 () Bool (= call_synapse.flby3 call_synapse.valid_s))
(define-fun .def_547 () Bool (= call_synapse.flby2 call_synapse.invalid_s))
(define-fun .def_543 () Bool (= call_synapse.ite16 call_synapse.ite17))
(define-fun .def_544 () Bool (or param_e_s2 .def_543))
(define-fun .def_540 () Bool (= call_synapse.ite14 call_synapse.ite17))
(define-fun .def_531 () Bool (not param_e_s2))
(define-fun .def_541 () Bool (or .def_531 .def_540))
(define-fun .def_537 () Bool (= call_synapse.ite10 call_synapse.ite11))
(define-fun .def_538 () Bool (or param_e_s2 .def_537))
(define-fun .def_534 () Bool (= call_synapse.ite8 call_synapse.ite11))
(define-fun .def_535 () Bool (or .def_531 .def_534))
(define-fun .def_530 () Bool (= call_synapse.ite5 call_synapse.ite2))
(define-fun .def_532 () Bool (or .def_530 .def_531))
(define-fun .def_526 () Bool (= call_synapse.ite4 call_synapse.ite5))
(define-fun .def_528 () Bool (or .def_526 param_e_s2))
(define-fun .def_533 () Bool (and .def_528 .def_532))
(define-fun .def_536 () Bool (and .def_533 .def_535))
(define-fun .def_539 () Bool (and .def_536 .def_538))
(define-fun .def_542 () Bool (and .def_539 .def_541))
(define-fun .def_545 () Bool (and .def_542 .def_544))
(define-fun .def_522 () Bool (= call_synapse.ite18 call_synapse.ite17))
(define-fun .def_523 () Bool (or param_e_s1 .def_522))
(define-fun .def_518 () Bool (= call_synapse.ite13 call_synapse.ite18))
(define-fun .def_505 () Bool (not param_e_s1))
(define-fun .def_519 () Bool (or .def_505 .def_518))
(define-fun .def_514 () Bool (= call_synapse.ite12 call_synapse.ite11))
(define-fun .def_515 () Bool (or param_e_s1 .def_514))
(define-fun .def_510 () Bool (= call_synapse.ite7 call_synapse.ite12))
(define-fun .def_511 () Bool (or .def_505 .def_510))
(define-fun .def_504 () Bool (= call_synapse.ite6 call_synapse.ite))
(define-fun .def_506 () Bool (or .def_504 .def_505))
(define-fun .def_500 () Bool (= call_synapse.ite6 call_synapse.ite5))
(define-fun .def_502 () Bool (or .def_500 param_e_s1))
(define-fun .def_507 () Bool (and .def_502 .def_506))
(define-fun .def_512 () Bool (and .def_507 .def_511))
(define-fun .def_516 () Bool (and .def_512 .def_515))
(define-fun .def_520 () Bool (and .def_516 .def_519))
(define-fun .def_524 () Bool (and .def_520 .def_523))
(define-fun .def_496 () Bool (= env call_Sofar.Sofar))
(define-fun .def_493 () Bool (= call_synapse.mem_init_s mem_init_s))
(define-fun .def_490 () Bool (= dirty_s call_synapse.dirty_s))
(define-fun .def_486 () Bool (= valid_s call_synapse.valid_s))
(define-fun .def_482 () Bool (= invalid_s call_synapse.invalid_s))
(define-fun .def_477 () Bool (not env))
(define-fun .def_478 () Bool (or flby .def_477))
(define-fun .def_479 () Bool (= _OK_ .def_478))
(define-fun .def_483 () Bool (and .def_479 .def_482))
(define-fun .def_487 () Bool (and .def_483 .def_486))
(define-fun .def_491 () Bool (and .def_487 .def_490))
(define-fun .def_494 () Bool (and .def_491 .def_493))
(define-fun .def_497 () Bool (and .def_494 .def_496))
(define-fun .def_525 () Bool (and .def_497 .def_524))
(define-fun .def_546 () Bool (and .def_525 .def_545))
(define-fun .def_548 () Bool (and .def_546 .def_547))
(define-fun .def_550 () Bool (and .def_548 .def_549))
(define-fun .def_552 () Bool (and .def_550 .def_551))
(define-fun .def_554 () Bool (and .def_552 .def_553))
(define-fun .def_562 () Bool (and .def_554 .def_561))
(define-fun .def_564 () Bool (and .def_562 .def_563))
(define-fun .def_811 () Bool (and .def_564 .def_810))
(define-fun .def_722 () Bool (<= 0 param_init_invalid_s.next))
(define-fun .def_724 () Bool (and .def_722 call_excludes3.excludes.next))
(define-fun .def_725 () Bool (and call_Sofar.Sofar .def_724))
(define-fun .def_727 () Bool (= .def_725 call_Sofar.flby.next))
(define-fun .def_719 () Bool (= call_synapse.ite18.next call_synapse.flby4.next))
(define-fun .def_715 () Bool (= call_synapse.ite12.next call_synapse.flby3.next))
(define-fun .def_711 () Bool (= call_synapse.ite6.next call_synapse.flby2.next))
(define-fun .def_707 () Bool (= call_synapse.mem_init_s call_synapse.flby.next))
(define-fun .def_685 () Bool (<= 1 call_synapse.invalid_s))
(define-fun .def_703 () Bool (= call_synapse.garde_s3.next .def_685))
(define-fun .def_700 () Bool (= call_synapse.ite9.next 0))
(define-fun .def_649 () Bool (not call_synapse.garde_s3.next))
(define-fun .def_701 () Bool (or .def_649 .def_700))
(define-fun .def_698 () Bool (= call_synapse.ite15.next 1))
(define-fun .def_699 () Bool (or .def_649 .def_698))
(define-fun .def_702 () Bool (and .def_699 .def_701))
(define-fun .def_704 () Bool (and .def_702 .def_703))
(define-fun .def_694 () Bool (<= 1 call_synapse.valid_s))
(define-fun .def_695 () Bool (= call_synapse.garde_s2.next .def_694))
(define-fun .def_691 () Bool (= call_synapse.ite8.next 0))
(define-fun .def_634 () Bool (not call_synapse.garde_s2.next))
(define-fun .def_692 () Bool (or .def_634 .def_691))
(define-fun .def_689 () Bool (= call_synapse.ite14.next 1))
(define-fun .def_690 () Bool (or .def_634 .def_689))
(define-fun .def_693 () Bool (and .def_690 .def_692))
(define-fun .def_696 () Bool (and .def_693 .def_695))
(define-fun .def_686 () Bool (= call_synapse.garde_s1.next .def_685))
(define-fun .def_683 () Bool (= call_synapse.ite13.next 0))
(define-fun .def_621 () Bool (not call_synapse.garde_s1.next))
(define-fun .def_684 () Bool (or .def_621 .def_683))
(define-fun .def_687 () Bool (and .def_684 .def_686))
(define-fun .def_679 () Bool (= call_synapse.dirty_s call_synapse.ite15.next))
(define-fun .def_680 () Bool (or call_synapse.garde_s3.next .def_679))
(define-fun .def_676 () Bool (= call_synapse.dirty_s call_synapse.ite13.next))
(define-fun .def_677 () Bool (or call_synapse.garde_s1.next .def_676))
(define-fun .def_673 () Bool (= call_synapse.dirty_s call_synapse.ite14.next))
(define-fun .def_674 () Bool (or call_synapse.garde_s2.next .def_673))
(define-fun .def_678 () Bool (and .def_674 .def_677))
(define-fun .def_681 () Bool (and .def_678 .def_680))
(define-fun .def_668 () Bool (= call_synapse.valid_s call_synapse.ite9.next))
(define-fun .def_669 () Bool (or call_synapse.garde_s3.next .def_668))
(define-fun .def_665 () Bool (= call_synapse.valid_s call_synapse.ite8.next))
(define-fun .def_666 () Bool (or call_synapse.garde_s2.next .def_665))
(define-fun .def_659 () Int (* (- 1) call_synapse.ite7.next))
(define-fun .def_660 () Int (+ call_synapse.valid_s .def_659))
(define-fun .def_661 () Bool (= .def_660 (- 1)))
(define-fun .def_662 () Bool (or .def_621 .def_661))
(define-fun .def_657 () Bool (= call_synapse.valid_s call_synapse.ite7.next))
(define-fun .def_658 () Bool (or call_synapse.garde_s1.next .def_657))
(define-fun .def_663 () Bool (and .def_658 .def_662))
(define-fun .def_667 () Bool (and .def_663 .def_666))
(define-fun .def_670 () Bool (and .def_667 .def_669))
(define-fun .def_652 () Bool (= call_synapse.invalid_s call_synapse.ite3.next))
(define-fun .def_653 () Bool (or call_synapse.garde_s3.next .def_652))
(define-fun .def_640 () Int (* (- 1) call_synapse.ite3.next))
(define-fun .def_644 () Int (+ call_synapse.dirty_s .def_640))
(define-fun .def_645 () Int (+ call_synapse.valid_s .def_644))
(define-fun .def_646 () Int (+ call_synapse.invalid_s .def_645))
(define-fun .def_647 () Bool (= .def_646 1))
(define-fun .def_650 () Bool (or .def_647 .def_649))
(define-fun .def_637 () Bool (= call_synapse.invalid_s call_synapse.ite2.next))
(define-fun .def_638 () Bool (or call_synapse.garde_s2.next .def_637))
(define-fun .def_625 () Int (* (- 1) call_synapse.ite2.next))
(define-fun .def_629 () Int (+ call_synapse.dirty_s .def_625))
(define-fun .def_630 () Int (+ call_synapse.valid_s .def_629))
(define-fun .def_631 () Int (+ call_synapse.invalid_s .def_630))
(define-fun .def_632 () Bool (= .def_631 2))
(define-fun .def_635 () Bool (or .def_632 .def_634))
(define-fun .def_615 () Int (* (- 1) call_synapse.ite.next))
(define-fun .def_618 () Int (+ call_synapse.dirty_s .def_615))
(define-fun .def_619 () Int (+ call_synapse.invalid_s .def_618))
(define-fun .def_620 () Bool (= .def_619 0))
(define-fun .def_622 () Bool (or .def_620 .def_621))
(define-fun .def_612 () Bool (= call_synapse.invalid_s call_synapse.ite.next))
(define-fun .def_614 () Bool (or .def_612 call_synapse.garde_s1.next))
(define-fun .def_623 () Bool (and .def_614 .def_622))
(define-fun .def_636 () Bool (and .def_623 .def_635))
(define-fun .def_639 () Bool (and .def_636 .def_638))
(define-fun .def_651 () Bool (and .def_639 .def_650))
(define-fun .def_654 () Bool (and .def_651 .def_653))
(define-fun .def_597 () Int (* (- 1) dirty_s.next))
(define-fun .def_594 () Int (* (- 1) valid_s.next))
(define-fun .def_602 () Int (+ .def_594 .def_597))
(define-fun .def_592 () Int (* (- 1) invalid_s.next))
(define-fun .def_603 () Int (+ .def_592 .def_602))
(define-fun .def_604 () Int (+ dirty_s .def_603))
(define-fun .def_605 () Int (+ valid_s .def_604))
(define-fun .def_606 () Int (+ invalid_s .def_605))
(define-fun .def_607 () Bool (= .def_606 0))
(define-fun .def_609 () Bool (= .def_607 flby.next))
(define-fun .def_588 () Bool (= call_synapse.dirty_s call_synapse.ite16.next))
(define-fun .def_589 () Bool (or param_e_s3.next .def_588))
(define-fun .def_585 () Bool (= call_synapse.ite15.next call_synapse.ite16.next))
(define-fun .def_572 () Bool (not param_e_s3.next))
(define-fun .def_586 () Bool (or .def_572 .def_585))
(define-fun .def_580 () Bool (= call_synapse.valid_s call_synapse.ite10.next))
(define-fun .def_581 () Bool (or param_e_s3.next .def_580))
(define-fun .def_577 () Bool (= call_synapse.ite9.next call_synapse.ite10.next))
(define-fun .def_578 () Bool (or .def_572 .def_577))
(define-fun .def_571 () Bool (= call_synapse.ite4.next call_synapse.ite3.next))
(define-fun .def_573 () Bool (or .def_571 .def_572))
(define-fun .def_567 () Bool (= call_synapse.invalid_s call_synapse.ite4.next))
(define-fun .def_569 () Bool (or .def_567 param_e_s3.next))
(define-fun .def_574 () Bool (and .def_569 .def_573))
(define-fun .def_579 () Bool (and .def_574 .def_578))
(define-fun .def_582 () Bool (and .def_579 .def_581))
(define-fun .def_587 () Bool (and .def_582 .def_586))
(define-fun .def_590 () Bool (and .def_587 .def_589))
(define-fun .def_610 () Bool (and .def_590 .def_609))
(define-fun .def_655 () Bool (and .def_610 .def_654))
(define-fun .def_671 () Bool (and .def_655 .def_670))
(define-fun .def_682 () Bool (and .def_671 .def_681))
(define-fun .def_688 () Bool (and .def_682 .def_687))
(define-fun .def_697 () Bool (and .def_688 .def_696))
(define-fun .def_705 () Bool (and .def_697 .def_704))
(define-fun .def_708 () Bool (and .def_705 .def_707))
(define-fun .def_712 () Bool (and .def_708 .def_711))
(define-fun .def_716 () Bool (and .def_712 .def_715))
(define-fun .def_720 () Bool (and .def_716 .def_719))
(define-fun .def_728 () Bool (and .def_720 .def_727))
(define-fun .def_812 () Bool (and .def_728 .def_811))
(assert .def_812)
